; --------------------------------------------------------------------------
; File     : KGC442-1.smt2
; Domain   : ODRL Policy / KB Grounding Concept-valued
; Axioms   : isAnyOf / Unknown: isAnyOf {dpv:SR, dpv:CR} x eq dpv:NCP
; Version  : 1.0
; Authors  : Mustafa, D. & Sutcliffe, G.
; Refs     : [Mus+26b] Mustafa, D., Collarana, D., Lange, C., Peng, Y., Haque, R., Quix, C., Decker, S. Denotational Semantics for ODRL: Knowledge-Based Constraint Conflict Detection. 2026. arXiv:2602.19883. https://arxiv.org/abs/2602.19883
; Source   : Mustafa, D. (2026)
; Names    : KGC442-1.smt2
; Status   : sat
; Verdict  : Unknown
; Comments : Verdict: Unknown  Category: Conflict  Difficulty: Medium
; --------------------------------------------------------------------------

(set-logic UF)
(declare-sort Concept 0)
(declare-fun dpv_scientific_research    () Concept)
(declare-fun dpv_commercial_research    () Concept)
(declare-fun dpv_non_commercial_purpose () Concept)
(declare-fun kge_leq      (Concept Concept) Bool)
(declare-fun kge_disjoint (Concept Concept) Bool)
; KGE000 load-bearing axioms.
(assert (forall ((c Concept)) (kge_leq c c)))
(assert (forall ((a Concept) (b Concept))
    (=> (kge_disjoint a b) (kge_disjoint b a))))
(assert (forall ((c Concept)) (not (kge_disjoint c c))))
(assert (forall ((a Concept) (b Concept) (z Concept))
    (=> (and (kge_disjoint a b) (kge_leq z a) (kge_leq z b))
        false)))
; DPV silent on these relations; OWA gives Unknown.
(assert (distinct dpv_scientific_research
                  dpv_commercial_research
                  dpv_non_commercial_purpose))
(check-sat)
(exit)
